$ http://en.wikipedia.org/wiki/Survo_Puzzle, first example
language ESSENCE' 1.0
letting r be 3
letting c be 4
letting rowsums be [30,18,30]
letting colsums be [27,16,10,25]
letting game be [
          [0, 6, 0, 0],
          [8, 0, 0, 0],
          [0, 0, 3, 0]
          ]
